







































































































6 74 66 19 15 2 73 29 
72 41 59 37 67 33 47 56 
23 45 53 4 64 42 3 
63 34 60 36 70 57 1 
18 7 52 65 10 38 40 
5 46 48 17 51 69 50 16 
24 68 32 0 76 25 31 
44 14 58 55 22 8 30 13 
75 20 11 71 
35 61 28 27 54 43 62 
49 9 26 12 39 21 
